
Gurobi 9.1.0 (win64) logging started Sat Dec 12 22:34:39 2020

Changed value of parameter LogFile to logs/iteration13
   Prev:   Default: 
Gurobi Optimizer version 9.1.0 build v9.1.0rc0 (win64)
Thread count: 4 physical cores, 8 logical processors, using up to 8 threads
Optimize a model with 136 rows, 736 columns and 2940 nonzeros
Model fingerprint: 0x2defa08c
Coefficient statistics:
  Matrix range     [1e+00, 1e+00]
  Objective range  [1e+03, 4e+03]
  Bounds range     [0e+00, 0e+00]
  RHS range        [1e+00, 1e+00]
Presolve removed 15 rows and 16 columns
Presolve time: 0.00s
Presolved: 121 rows, 720 columns, 2919 nonzeros

Iteration    Objective       Primal Inf.    Dual Inf.      Time
       0    6.7058917e+04   8.800000e+01   0.000000e+00      0s
     242    1.0192767e+05   0.000000e+00   0.000000e+00      0s

Solved in 242 iterations and 0.01 seconds
Optimal objective  1.019276667e+05

Solutionx[8] 0.166667 
x[13] 0.333333 
x[24] 1.000000 
x[26] 0.500000 
x[27] 0.500000 
x[37] 1.000000 
x[38] 0.500000 
x[41] 0.333333 
x[43] 0.666667 
x[45] 0.500000 
x[64] 1.000000 
x[67] 1.000000 
x[70] 1.000000 
x[71] 0.500000 
x[72] 1.000000 
x[74] 1.000000 
x[76] 1.000000 
x[77] 1.000000 
x[78] 1.000000 
x[93] 1.000000 
x[101] 1.000000 
x[102] 1.000000 
x[104] 1.000000 
x[107] 1.000000 
x[111] 1.000000 
x[117] 1.000000 
x[118] 1.000000 
x[121] 1.000000 
x[122] 1.000000 
x[123] 0.500000 
x[124] 1.000000 
x[125] 0.500000 
x[127] 1.000000 
x[128] 1.000000 
x[129] 1.000000 
x[130] 1.000000 
x[131] 1.000000 
x[132] 1.000000 
x[133] 0.500000 
x[134] 1.000000 
x[135] 1.000000 
x[179] 0.333333 
x[436] 0.166667 
x[728] 0.500000 
x[810] 0.500000 
x[821] 0.500000 
x[1081] 0.500000 
x[1772] 0.500000 
x[2542] 0.166667 
x[2863] 0.166667 
x[3092] 0.666667 
x[3422] 0.333333 
x[19875] 0.500000 
x[24600] 0.166667 
x[29392] 0.500000 
x[9961] 0.500000 
x[4899] 0.333333 
x[10504] 0.166667 
x[15911] 0.333333 
x[20936] 0.166667 
x[144] 0.833333 
x[879] 0.500000 
x[887] 0.166667 
x[1148] 0.500000 
x[14965] 0.500000 
x[22176] 0.500000 
x[18798] 1.000000 
x[8183] 1.000000 
x[15783] 0.500000 
x[17560] 0.166667 
x[23424] 0.333333 
x[12310] 0.500000 
x[32577] 1.000000 
x[12864] 0.500000 
x[4664] 1.000000 
x[10840] 0.500000 
x[19131] 0.500000 
x[14661] 0.500000 
x[2877] 0.500000 
x[12247] 0.500000 
x[28684] 1.000000 
x[25678] 0.833333 
x[14101] 0.166667 
x[17081] 1.000000 
x[21422] 0.500000 
x[3967] 0.500000 

Gurobi 9.1.0 (win64) logging started Sun Dec 13 15:16:57 2020

Changed value of parameter LogFile to logs/iteration13
   Prev:   Default: 
Gurobi Optimizer version 9.1.0 build v9.1.0rc0 (win64)
Thread count: 4 physical cores, 8 logical processors, using up to 8 threads
Optimize a model with 136 rows, 736 columns and 2940 nonzeros
Model fingerprint: 0x2defa08c
Coefficient statistics:
  Matrix range     [1e+00, 1e+00]
  Objective range  [1e+03, 4e+03]
  Bounds range     [0e+00, 0e+00]
  RHS range        [1e+00, 1e+00]
Presolve removed 15 rows and 16 columns
Presolve time: 0.00s
Presolved: 121 rows, 720 columns, 2919 nonzeros

Iteration    Objective       Primal Inf.    Dual Inf.      Time
       0    6.7058917e+04   8.800000e+01   0.000000e+00      0s
     242    1.0192767e+05   0.000000e+00   0.000000e+00      0s

Solved in 242 iterations and 0.01 seconds
Optimal objective  1.019276667e+05

Solutionx[8] 0.166667 
x[13] 0.333333 
x[24] 1.000000 
x[26] 0.500000 
x[27] 0.500000 
x[37] 1.000000 
x[38] 0.500000 
x[41] 0.333333 
x[43] 0.666667 
x[45] 0.500000 
x[64] 1.000000 
x[67] 1.000000 
x[70] 1.000000 
x[71] 0.500000 
x[72] 1.000000 
x[74] 1.000000 
x[76] 1.000000 
x[77] 1.000000 
x[78] 1.000000 
x[93] 1.000000 
x[101] 1.000000 
x[102] 1.000000 
x[104] 1.000000 
x[107] 1.000000 
x[111] 1.000000 
x[117] 1.000000 
x[118] 1.000000 
x[121] 1.000000 
x[122] 1.000000 
x[123] 0.500000 
x[124] 1.000000 
x[125] 0.500000 
x[127] 1.000000 
x[128] 1.000000 
x[129] 1.000000 
x[130] 1.000000 
x[131] 1.000000 
x[132] 1.000000 
x[133] 0.500000 
x[134] 1.000000 
x[135] 1.000000 
x[179] 0.333333 
x[436] 0.166667 
x[728] 0.500000 
x[810] 0.500000 
x[821] 0.500000 
x[1081] 0.500000 
x[1772] 0.500000 
x[2542] 0.166667 
x[2863] 0.166667 
x[3092] 0.666667 
x[3422] 0.333333 
x[19875] 0.500000 
x[24600] 0.166667 
x[29392] 0.500000 
x[9961] 0.500000 
x[4899] 0.333333 
x[10504] 0.166667 
x[15911] 0.333333 
x[20936] 0.166667 
x[144] 0.833333 
x[879] 0.500000 
x[887] 0.166667 
x[1148] 0.500000 
x[14965] 0.500000 
x[22176] 0.500000 
x[18798] 1.000000 
x[8183] 1.000000 
x[15783] 0.500000 
x[17560] 0.166667 
x[23424] 0.333333 
x[12310] 0.500000 
x[32577] 1.000000 
x[12864] 0.500000 
x[4664] 1.000000 
x[10840] 0.500000 
x[19131] 0.500000 
x[14661] 0.500000 
x[2877] 0.500000 
x[12247] 0.500000 
x[28684] 1.000000 
x[25678] 0.833333 
x[14101] 0.166667 
x[17081] 1.000000 
x[21422] 0.500000 
x[3967] 0.500000 

Gurobi 9.1.0 (win64) logging started Sun Dec 13 15:18:43 2020

Changed value of parameter LogFile to logs/iteration13
   Prev:   Default: 
Gurobi Optimizer version 9.1.0 build v9.1.0rc0 (win64)
Thread count: 4 physical cores, 8 logical processors, using up to 8 threads
Optimize a model with 136 rows, 736 columns and 2940 nonzeros
Model fingerprint: 0x2defa08c
Coefficient statistics:
  Matrix range     [1e+00, 1e+00]
  Objective range  [1e+03, 4e+03]
  Bounds range     [0e+00, 0e+00]
  RHS range        [1e+00, 1e+00]
Presolve removed 15 rows and 16 columns
Presolve time: 0.00s
Presolved: 121 rows, 720 columns, 2919 nonzeros

Iteration    Objective       Primal Inf.    Dual Inf.      Time
       0    6.7058917e+04   8.800000e+01   0.000000e+00      0s
     242    1.0192767e+05   0.000000e+00   0.000000e+00      0s

Solved in 242 iterations and 0.00 seconds
Optimal objective  1.019276667e+05

Solutionx[8] 0.166667 
x[13] 0.333333 
x[24] 1.000000 
x[26] 0.500000 
x[27] 0.500000 
x[37] 1.000000 
x[38] 0.500000 
x[41] 0.333333 
x[43] 0.666667 
x[45] 0.500000 
x[64] 1.000000 
x[67] 1.000000 
x[70] 1.000000 
x[71] 0.500000 
x[72] 1.000000 
x[74] 1.000000 
x[76] 1.000000 
x[77] 1.000000 
x[78] 1.000000 
x[93] 1.000000 
x[101] 1.000000 
x[102] 1.000000 
x[104] 1.000000 
x[107] 1.000000 
x[111] 1.000000 
x[117] 1.000000 
x[118] 1.000000 
x[121] 1.000000 
x[122] 1.000000 
x[123] 0.500000 
x[124] 1.000000 
x[125] 0.500000 
x[127] 1.000000 
x[128] 1.000000 
x[129] 1.000000 
x[130] 1.000000 
x[131] 1.000000 
x[132] 1.000000 
x[133] 0.500000 
x[134] 1.000000 
x[135] 1.000000 
x[179] 0.333333 
x[436] 0.166667 
x[728] 0.500000 
x[810] 0.500000 
x[821] 0.500000 
x[1081] 0.500000 
x[1772] 0.500000 
x[2542] 0.166667 
x[2863] 0.166667 
x[3092] 0.666667 
x[3422] 0.333333 
x[19875] 0.500000 
x[24600] 0.166667 
x[29392] 0.500000 
x[9961] 0.500000 
x[4899] 0.333333 
x[10504] 0.166667 
x[15911] 0.333333 
x[20936] 0.166667 
x[144] 0.833333 
x[879] 0.500000 
x[887] 0.166667 
x[1148] 0.500000 
x[14965] 0.500000 
x[22176] 0.500000 
x[18798] 1.000000 
x[8183] 1.000000 
x[15783] 0.500000 
x[17560] 0.166667 
x[23424] 0.333333 
x[12310] 0.500000 
x[32577] 1.000000 
x[12864] 0.500000 
x[4664] 1.000000 
x[10840] 0.500000 
x[19131] 0.500000 
x[14661] 0.500000 
x[2877] 0.500000 
x[12247] 0.500000 
x[28684] 1.000000 
x[25678] 0.833333 
x[14101] 0.166667 
x[17081] 1.000000 
x[21422] 0.500000 
x[3967] 0.500000 

Gurobi 9.1.0 (win64) logging started Sun Dec 13 15:22:18 2020

Changed value of parameter LogFile to logs/iteration13
   Prev:   Default: 
Gurobi Optimizer version 9.1.0 build v9.1.0rc0 (win64)
Thread count: 4 physical cores, 8 logical processors, using up to 8 threads
Optimize a model with 136 rows, 736 columns and 2940 nonzeros
Model fingerprint: 0x2defa08c
Coefficient statistics:
  Matrix range     [1e+00, 1e+00]
  Objective range  [1e+03, 4e+03]
  Bounds range     [0e+00, 0e+00]
  RHS range        [1e+00, 1e+00]
Presolve removed 15 rows and 16 columns
Presolve time: 0.00s
Presolved: 121 rows, 720 columns, 2919 nonzeros

Iteration    Objective       Primal Inf.    Dual Inf.      Time
       0    6.7058917e+04   8.800000e+01   0.000000e+00      0s
     242    1.0192767e+05   0.000000e+00   0.000000e+00      0s

Solved in 242 iterations and 0.00 seconds
Optimal objective  1.019276667e+05

Solutionx[8] 0.166667 
x[13] 0.333333 
x[24] 1.000000 
x[26] 0.500000 
x[27] 0.500000 
x[37] 1.000000 
x[38] 0.500000 
x[41] 0.333333 
x[43] 0.666667 
x[45] 0.500000 
x[64] 1.000000 
x[67] 1.000000 
x[70] 1.000000 
x[71] 0.500000 
x[72] 1.000000 
x[74] 1.000000 
x[76] 1.000000 
x[77] 1.000000 
x[78] 1.000000 
x[93] 1.000000 
x[101] 1.000000 
x[102] 1.000000 
x[104] 1.000000 
x[107] 1.000000 
x[111] 1.000000 
x[117] 1.000000 
x[118] 1.000000 
x[121] 1.000000 
x[122] 1.000000 
x[123] 0.500000 
x[124] 1.000000 
x[125] 0.500000 
x[127] 1.000000 
x[128] 1.000000 
x[129] 1.000000 
x[130] 1.000000 
x[131] 1.000000 
x[132] 1.000000 
x[133] 0.500000 
x[134] 1.000000 
x[135] 1.000000 
x[179] 0.333333 
x[436] 0.166667 
x[728] 0.500000 
x[810] 0.500000 
x[821] 0.500000 
x[1081] 0.500000 
x[1772] 0.500000 
x[2542] 0.166667 
x[2863] 0.166667 
x[3092] 0.666667 
x[3422] 0.333333 
x[19875] 0.500000 
x[24600] 0.166667 
x[29392] 0.500000 
x[9961] 0.500000 
x[4899] 0.333333 
x[10504] 0.166667 
x[15911] 0.333333 
x[20936] 0.166667 
x[144] 0.833333 
x[879] 0.500000 
x[887] 0.166667 
x[1148] 0.500000 
x[14965] 0.500000 
x[22176] 0.500000 
x[18798] 1.000000 
x[8183] 1.000000 
x[15783] 0.500000 
x[17560] 0.166667 
x[23424] 0.333333 
x[12310] 0.500000 
x[32577] 1.000000 
x[12864] 0.500000 
x[4664] 1.000000 
x[10840] 0.500000 
x[19131] 0.500000 
x[14661] 0.500000 
x[2877] 0.500000 
x[12247] 0.500000 
x[28684] 1.000000 
x[25678] 0.833333 
x[14101] 0.166667 
x[17081] 1.000000 
x[21422] 0.500000 
x[3967] 0.500000 

Gurobi 9.1.0 (win64) logging started Sun Dec 13 15:26:22 2020

Changed value of parameter LogFile to logs/iteration13
   Prev:   Default: 
Gurobi Optimizer version 9.1.0 build v9.1.0rc0 (win64)
Thread count: 4 physical cores, 8 logical processors, using up to 8 threads
Optimize a model with 136 rows, 736 columns and 2940 nonzeros
Model fingerprint: 0x2defa08c
Coefficient statistics:
  Matrix range     [1e+00, 1e+00]
  Objective range  [1e+03, 4e+03]
  Bounds range     [0e+00, 0e+00]
  RHS range        [1e+00, 1e+00]
Presolve removed 15 rows and 16 columns
Presolve time: 0.00s
Presolved: 121 rows, 720 columns, 2919 nonzeros

Iteration    Objective       Primal Inf.    Dual Inf.      Time
       0    6.7058917e+04   8.800000e+01   0.000000e+00      0s
     242    1.0192767e+05   0.000000e+00   0.000000e+00      0s

Solved in 242 iterations and 0.00 seconds
Optimal objective  1.019276667e+05

Solutionx[8] 0.166667 
x[13] 0.333333 
x[24] 1.000000 
x[26] 0.500000 
x[27] 0.500000 
x[37] 1.000000 
x[38] 0.500000 
x[41] 0.333333 
x[43] 0.666667 
x[45] 0.500000 
x[64] 1.000000 
x[67] 1.000000 
x[70] 1.000000 
x[71] 0.500000 
x[72] 1.000000 
x[74] 1.000000 
x[76] 1.000000 
x[77] 1.000000 
x[78] 1.000000 
x[93] 1.000000 
x[101] 1.000000 
x[102] 1.000000 
x[104] 1.000000 
x[107] 1.000000 
x[111] 1.000000 
x[117] 1.000000 
x[118] 1.000000 
x[121] 1.000000 
x[122] 1.000000 
x[123] 0.500000 
x[124] 1.000000 
x[125] 0.500000 
x[127] 1.000000 
x[128] 1.000000 
x[129] 1.000000 
x[130] 1.000000 
x[131] 1.000000 
x[132] 1.000000 
x[133] 0.500000 
x[134] 1.000000 
x[135] 1.000000 
x[179] 0.333333 
x[436] 0.166667 
x[728] 0.500000 
x[810] 0.500000 
x[821] 0.500000 
x[1081] 0.500000 
x[1772] 0.500000 
x[2542] 0.166667 
x[2863] 0.166667 
x[3092] 0.666667 
x[3422] 0.333333 
x[19875] 0.500000 
x[24600] 0.166667 
x[29392] 0.500000 
x[9961] 0.500000 
x[4899] 0.333333 
x[10504] 0.166667 
x[15911] 0.333333 
x[20936] 0.166667 
x[144] 0.833333 
x[879] 0.500000 
x[887] 0.166667 
x[1148] 0.500000 
x[14965] 0.500000 
x[22176] 0.500000 
x[18798] 1.000000 
x[8183] 1.000000 
x[15783] 0.500000 
x[17560] 0.166667 
x[23424] 0.333333 
x[12310] 0.500000 
x[32577] 1.000000 
x[12864] 0.500000 
x[4664] 1.000000 
x[10840] 0.500000 
x[19131] 0.500000 
x[14661] 0.500000 
x[2877] 0.500000 
x[12247] 0.500000 
x[28684] 1.000000 
x[25678] 0.833333 
x[14101] 0.166667 
x[17081] 1.000000 
x[21422] 0.500000 
x[3967] 0.500000 

Gurobi 9.1.0 (win64) logging started Sun Dec 13 13:24:58 2020

Changed value of parameter LogFile to logs/iteration13
   Prev:   Default: 
Gurobi Optimizer version 9.1.0 build v9.1.0rc0 (win64)
Thread count: 4 physical cores, 8 logical processors, using up to 8 threads
Optimize a model with 136 rows, 736 columns and 2940 nonzeros
Model fingerprint: 0x2defa08c
Coefficient statistics:
  Matrix range     [1e+00, 1e+00]
  Objective range  [1e+03, 4e+03]
  Bounds range     [0e+00, 0e+00]
  RHS range        [1e+00, 1e+00]
Presolve removed 15 rows and 16 columns
Presolve time: 0.00s
Presolved: 121 rows, 720 columns, 2919 nonzeros

Iteration    Objective       Primal Inf.    Dual Inf.      Time
       0    6.7058917e+04   8.800000e+01   0.000000e+00      0s
     242    1.0192767e+05   0.000000e+00   0.000000e+00      0s

Solved in 242 iterations and 0.00 seconds
Optimal objective  1.019276667e+05

Solutionx[8] 0.166667 
x[13] 0.333333 
x[24] 1.000000 
x[26] 0.500000 
x[27] 0.500000 
x[37] 1.000000 
x[38] 0.500000 
x[41] 0.333333 
x[43] 0.666667 
x[45] 0.500000 
x[64] 1.000000 
x[67] 1.000000 
x[70] 1.000000 
x[71] 0.500000 
x[72] 1.000000 
x[74] 1.000000 
x[76] 1.000000 
x[77] 1.000000 
x[78] 1.000000 
x[93] 1.000000 
x[101] 1.000000 
x[102] 1.000000 
x[104] 1.000000 
x[107] 1.000000 
x[111] 1.000000 
x[117] 1.000000 
x[118] 1.000000 
x[121] 1.000000 
x[122] 1.000000 
x[123] 0.500000 
x[124] 1.000000 
x[125] 0.500000 
x[127] 1.000000 
x[128] 1.000000 
x[129] 1.000000 
x[130] 1.000000 
x[131] 1.000000 
x[132] 1.000000 
x[133] 0.500000 
x[134] 1.000000 
x[135] 1.000000 
x[179] 0.333333 
x[436] 0.166667 
x[728] 0.500000 
x[810] 0.500000 
x[821] 0.500000 
x[1081] 0.500000 
x[1772] 0.500000 
x[2542] 0.166667 
x[2863] 0.166667 
x[3092] 0.666667 
x[3422] 0.333333 
x[19875] 0.500000 
x[24600] 0.166667 
x[29392] 0.500000 
x[9961] 0.500000 
x[4899] 0.333333 
x[10504] 0.166667 
x[15911] 0.333333 
x[20936] 0.166667 
x[144] 0.833333 
x[879] 0.500000 
x[887] 0.166667 
x[1148] 0.500000 
x[14965] 0.500000 
x[22176] 0.500000 
x[18798] 1.000000 
x[8183] 1.000000 
x[15783] 0.500000 
x[17560] 0.166667 
x[23424] 0.333333 
x[12310] 0.500000 
x[32577] 1.000000 
x[12864] 0.500000 
x[4664] 1.000000 
x[10840] 0.500000 
x[19131] 0.500000 
x[14661] 0.500000 
x[2877] 0.500000 
x[12247] 0.500000 
x[28684] 1.000000 
x[25678] 0.833333 
x[14101] 0.166667 
x[17081] 1.000000 
x[21422] 0.500000 
x[3967] 0.500000 
